0 3 3
10 23 23
20 43 43
30 63 63
40 83 83
50 103 103
60 123 123
70 143 143
80 163 163
90 183 183
100 203 203
110 223 223
120 243 243
130 263 263
140 283 283
150 303 303
160 323 323
170 343 343
180 363 363
190 383 383
200 403 403
100 203 203
150 303 303
200 403 403
250 503 503
300 603 603
350 703 703
400 803 803
450 903 903
500 1003 1003
550 1103 1103
600 1203 1203
650 1303 1303
700 1403 1403
750 1503 1503
800 1603 1603
850 1703 1703
900 1803 1803
950 1903 1903
1000 2003 2003
